c Line Graph - Bad case for Dinics
c 512 vertices
p max 512 1021
n 1 s
n 512 t
a 1 512 1
a 1 2 512
a 2 512 1
a 2 3 512
a 3 512 1
a 3 4 512
a 4 512 1
a 4 5 512
a 5 512 1
a 5 6 512
a 6 512 1
a 6 7 512
a 7 512 1
a 7 8 512
a 8 512 1
a 8 9 512
a 9 512 1
a 9 10 512
a 10 512 1
a 10 11 512
a 11 512 1
a 11 12 512
a 12 512 1
a 12 13 512
a 13 512 1
a 13 14 512
a 14 512 1
a 14 15 512
a 15 512 1
a 15 16 512
a 16 512 1
a 16 17 512
a 17 512 1
a 17 18 512
a 18 512 1
a 18 19 512
a 19 512 1
a 19 20 512
a 20 512 1
a 20 21 512
a 21 512 1
a 21 22 512
a 22 512 1
a 22 23 512
a 23 512 1
a 23 24 512
a 24 512 1
a 24 25 512
a 25 512 1
a 25 26 512
a 26 512 1
a 26 27 512
a 27 512 1
a 27 28 512
a 28 512 1
a 28 29 512
a 29 512 1
a 29 30 512
a 30 512 1
a 30 31 512
a 31 512 1
a 31 32 512
a 32 512 1
a 32 33 512
a 33 512 1
a 33 34 512
a 34 512 1
a 34 35 512
a 35 512 1
a 35 36 512
a 36 512 1
a 36 37 512
a 37 512 1
a 37 38 512
a 38 512 1
a 38 39 512
a 39 512 1
a 39 40 512
a 40 512 1
a 40 41 512
a 41 512 1
a 41 42 512
a 42 512 1
a 42 43 512
a 43 512 1
a 43 44 512
a 44 512 1
a 44 45 512
a 45 512 1
a 45 46 512
a 46 512 1
a 46 47 512
a 47 512 1
a 47 48 512
a 48 512 1
a 48 49 512
a 49 512 1
a 49 50 512
a 50 512 1
a 50 51 512
a 51 512 1
a 51 52 512
a 52 512 1
a 52 53 512
a 53 512 1
a 53 54 512
a 54 512 1
a 54 55 512
a 55 512 1
a 55 56 512
a 56 512 1
a 56 57 512
a 57 512 1
a 57 58 512
a 58 512 1
a 58 59 512
a 59 512 1
a 59 60 512
a 60 512 1
a 60 61 512
a 61 512 1
a 61 62 512
a 62 512 1
a 62 63 512
a 63 512 1
a 63 64 512
a 64 512 1
a 64 65 512
a 65 512 1
a 65 66 512
a 66 512 1
a 66 67 512
a 67 512 1
a 67 68 512
a 68 512 1
a 68 69 512
a 69 512 1
a 69 70 512
a 70 512 1
a 70 71 512
a 71 512 1
a 71 72 512
a 72 512 1
a 72 73 512
a 73 512 1
a 73 74 512
a 74 512 1
a 74 75 512
a 75 512 1
a 75 76 512
a 76 512 1
a 76 77 512
a 77 512 1
a 77 78 512
a 78 512 1
a 78 79 512
a 79 512 1
a 79 80 512
a 80 512 1
a 80 81 512
a 81 512 1
a 81 82 512
a 82 512 1
a 82 83 512
a 83 512 1
a 83 84 512
a 84 512 1
a 84 85 512
a 85 512 1
a 85 86 512
a 86 512 1
a 86 87 512
a 87 512 1
a 87 88 512
a 88 512 1
a 88 89 512
a 89 512 1
a 89 90 512
a 90 512 1
a 90 91 512
a 91 512 1
a 91 92 512
a 92 512 1
a 92 93 512
a 93 512 1
a 93 94 512
a 94 512 1
a 94 95 512
a 95 512 1
a 95 96 512
a 96 512 1
a 96 97 512
a 97 512 1
a 97 98 512
a 98 512 1
a 98 99 512
a 99 512 1
a 99 100 512
a 100 512 1
a 100 101 512
a 101 512 1
a 101 102 512
a 102 512 1
a 102 103 512
a 103 512 1
a 103 104 512
a 104 512 1
a 104 105 512
a 105 512 1
a 105 106 512
a 106 512 1
a 106 107 512
a 107 512 1
a 107 108 512
a 108 512 1
a 108 109 512
a 109 512 1
a 109 110 512
a 110 512 1
a 110 111 512
a 111 512 1
a 111 112 512
a 112 512 1
a 112 113 512
a 113 512 1
a 113 114 512
a 114 512 1
a 114 115 512
a 115 512 1
a 115 116 512
a 116 512 1
a 116 117 512
a 117 512 1
a 117 118 512
a 118 512 1
a 118 119 512
a 119 512 1
a 119 120 512
a 120 512 1
a 120 121 512
a 121 512 1
a 121 122 512
a 122 512 1
a 122 123 512
a 123 512 1
a 123 124 512
a 124 512 1
a 124 125 512
a 125 512 1
a 125 126 512
a 126 512 1
a 126 127 512
a 127 512 1
a 127 128 512
a 128 512 1
a 128 129 512
a 129 512 1
a 129 130 512
a 130 512 1
a 130 131 512
a 131 512 1
a 131 132 512
a 132 512 1
a 132 133 512
a 133 512 1
a 133 134 512
a 134 512 1
a 134 135 512
a 135 512 1
a 135 136 512
a 136 512 1
a 136 137 512
a 137 512 1
a 137 138 512
a 138 512 1
a 138 139 512
a 139 512 1
a 139 140 512
a 140 512 1
a 140 141 512
a 141 512 1
a 141 142 512
a 142 512 1
a 142 143 512
a 143 512 1
a 143 144 512
a 144 512 1
a 144 145 512
a 145 512 1
a 145 146 512
a 146 512 1
a 146 147 512
a 147 512 1
a 147 148 512
a 148 512 1
a 148 149 512
a 149 512 1
a 149 150 512
a 150 512 1
a 150 151 512
a 151 512 1
a 151 152 512
a 152 512 1
a 152 153 512
a 153 512 1
a 153 154 512
a 154 512 1
a 154 155 512
a 155 512 1
a 155 156 512
a 156 512 1
a 156 157 512
a 157 512 1
a 157 158 512
a 158 512 1
a 158 159 512
a 159 512 1
a 159 160 512
a 160 512 1
a 160 161 512
a 161 512 1
a 161 162 512
a 162 512 1
a 162 163 512
a 163 512 1
a 163 164 512
a 164 512 1
a 164 165 512
a 165 512 1
a 165 166 512
a 166 512 1
a 166 167 512
a 167 512 1
a 167 168 512
a 168 512 1
a 168 169 512
a 169 512 1
a 169 170 512
a 170 512 1
a 170 171 512
a 171 512 1
a 171 172 512
a 172 512 1
a 172 173 512
a 173 512 1
a 173 174 512
a 174 512 1
a 174 175 512
a 175 512 1
a 175 176 512
a 176 512 1
a 176 177 512
a 177 512 1
a 177 178 512
a 178 512 1
a 178 179 512
a 179 512 1
a 179 180 512
a 180 512 1
a 180 181 512
a 181 512 1
a 181 182 512
a 182 512 1
a 182 183 512
a 183 512 1
a 183 184 512
a 184 512 1
a 184 185 512
a 185 512 1
a 185 186 512
a 186 512 1
a 186 187 512
a 187 512 1
a 187 188 512
a 188 512 1
a 188 189 512
a 189 512 1
a 189 190 512
a 190 512 1
a 190 191 512
a 191 512 1
a 191 192 512
a 192 512 1
a 192 193 512
a 193 512 1
a 193 194 512
a 194 512 1
a 194 195 512
a 195 512 1
a 195 196 512
a 196 512 1
a 196 197 512
a 197 512 1
a 197 198 512
a 198 512 1
a 198 199 512
a 199 512 1
a 199 200 512
a 200 512 1
a 200 201 512
a 201 512 1
a 201 202 512
a 202 512 1
a 202 203 512
a 203 512 1
a 203 204 512
a 204 512 1
a 204 205 512
a 205 512 1
a 205 206 512
a 206 512 1
a 206 207 512
a 207 512 1
a 207 208 512
a 208 512 1
a 208 209 512
a 209 512 1
a 209 210 512
a 210 512 1
a 210 211 512
a 211 512 1
a 211 212 512
a 212 512 1
a 212 213 512
a 213 512 1
a 213 214 512
a 214 512 1
a 214 215 512
a 215 512 1
a 215 216 512
a 216 512 1
a 216 217 512
a 217 512 1
a 217 218 512
a 218 512 1
a 218 219 512
a 219 512 1
a 219 220 512
a 220 512 1
a 220 221 512
a 221 512 1
a 221 222 512
a 222 512 1
a 222 223 512
a 223 512 1
a 223 224 512
a 224 512 1
a 224 225 512
a 225 512 1
a 225 226 512
a 226 512 1
a 226 227 512
a 227 512 1
a 227 228 512
a 228 512 1
a 228 229 512
a 229 512 1
a 229 230 512
a 230 512 1
a 230 231 512
a 231 512 1
a 231 232 512
a 232 512 1
a 232 233 512
a 233 512 1
a 233 234 512
a 234 512 1
a 234 235 512
a 235 512 1
a 235 236 512
a 236 512 1
a 236 237 512
a 237 512 1
a 237 238 512
a 238 512 1
a 238 239 512
a 239 512 1
a 239 240 512
a 240 512 1
a 240 241 512
a 241 512 1
a 241 242 512
a 242 512 1
a 242 243 512
a 243 512 1
a 243 244 512
a 244 512 1
a 244 245 512
a 245 512 1
a 245 246 512
a 246 512 1
a 246 247 512
a 247 512 1
a 247 248 512
a 248 512 1
a 248 249 512
a 249 512 1
a 249 250 512
a 250 512 1
a 250 251 512
a 251 512 1
a 251 252 512
a 252 512 1
a 252 253 512
a 253 512 1
a 253 254 512
a 254 512 1
a 254 255 512
a 255 512 1
a 255 256 512
a 256 512 1
a 256 257 512
a 257 512 1
a 257 258 512
a 258 512 1
a 258 259 512
a 259 512 1
a 259 260 512
a 260 512 1
a 260 261 512
a 261 512 1
a 261 262 512
a 262 512 1
a 262 263 512
a 263 512 1
a 263 264 512
a 264 512 1
a 264 265 512
a 265 512 1
a 265 266 512
a 266 512 1
a 266 267 512
a 267 512 1
a 267 268 512
a 268 512 1
a 268 269 512
a 269 512 1
a 269 270 512
a 270 512 1
a 270 271 512
a 271 512 1
a 271 272 512
a 272 512 1
a 272 273 512
a 273 512 1
a 273 274 512
a 274 512 1
a 274 275 512
a 275 512 1
a 275 276 512
a 276 512 1
a 276 277 512
a 277 512 1
a 277 278 512
a 278 512 1
a 278 279 512
a 279 512 1
a 279 280 512
a 280 512 1
a 280 281 512
a 281 512 1
a 281 282 512
a 282 512 1
a 282 283 512
a 283 512 1
a 283 284 512
a 284 512 1
a 284 285 512
a 285 512 1
a 285 286 512
a 286 512 1
a 286 287 512
a 287 512 1
a 287 288 512
a 288 512 1
a 288 289 512
a 289 512 1
a 289 290 512
a 290 512 1
a 290 291 512
a 291 512 1
a 291 292 512
a 292 512 1
a 292 293 512
a 293 512 1
a 293 294 512
a 294 512 1
a 294 295 512
a 295 512 1
a 295 296 512
a 296 512 1
a 296 297 512
a 297 512 1
a 297 298 512
a 298 512 1
a 298 299 512
a 299 512 1
a 299 300 512
a 300 512 1
a 300 301 512
a 301 512 1
a 301 302 512
a 302 512 1
a 302 303 512
a 303 512 1
a 303 304 512
a 304 512 1
a 304 305 512
a 305 512 1
a 305 306 512
a 306 512 1
a 306 307 512
a 307 512 1
a 307 308 512
a 308 512 1
a 308 309 512
a 309 512 1
a 309 310 512
a 310 512 1
a 310 311 512
a 311 512 1
a 311 312 512
a 312 512 1
a 312 313 512
a 313 512 1
a 313 314 512
a 314 512 1
a 314 315 512
a 315 512 1
a 315 316 512
a 316 512 1
a 316 317 512
a 317 512 1
a 317 318 512
a 318 512 1
a 318 319 512
a 319 512 1
a 319 320 512
a 320 512 1
a 320 321 512
a 321 512 1
a 321 322 512
a 322 512 1
a 322 323 512
a 323 512 1
a 323 324 512
a 324 512 1
a 324 325 512
a 325 512 1
a 325 326 512
a 326 512 1
a 326 327 512
a 327 512 1
a 327 328 512
a 328 512 1
a 328 329 512
a 329 512 1
a 329 330 512
a 330 512 1
a 330 331 512
a 331 512 1
a 331 332 512
a 332 512 1
a 332 333 512
a 333 512 1
a 333 334 512
a 334 512 1
a 334 335 512
a 335 512 1
a 335 336 512
a 336 512 1
a 336 337 512
a 337 512 1
a 337 338 512
a 338 512 1
a 338 339 512
a 339 512 1
a 339 340 512
a 340 512 1
a 340 341 512
a 341 512 1
a 341 342 512
a 342 512 1
a 342 343 512
a 343 512 1
a 343 344 512
a 344 512 1
a 344 345 512
a 345 512 1
a 345 346 512
a 346 512 1
a 346 347 512
a 347 512 1
a 347 348 512
a 348 512 1
a 348 349 512
a 349 512 1
a 349 350 512
a 350 512 1
a 350 351 512
a 351 512 1
a 351 352 512
a 352 512 1
a 352 353 512
a 353 512 1
a 353 354 512
a 354 512 1
a 354 355 512
a 355 512 1
a 355 356 512
a 356 512 1
a 356 357 512
a 357 512 1
a 357 358 512
a 358 512 1
a 358 359 512
a 359 512 1
a 359 360 512
a 360 512 1
a 360 361 512
a 361 512 1
a 361 362 512
a 362 512 1
a 362 363 512
a 363 512 1
a 363 364 512
a 364 512 1
a 364 365 512
a 365 512 1
a 365 366 512
a 366 512 1
a 366 367 512
a 367 512 1
a 367 368 512
a 368 512 1
a 368 369 512
a 369 512 1
a 369 370 512
a 370 512 1
a 370 371 512
a 371 512 1
a 371 372 512
a 372 512 1
a 372 373 512
a 373 512 1
a 373 374 512
a 374 512 1
a 374 375 512
a 375 512 1
a 375 376 512
a 376 512 1
a 376 377 512
a 377 512 1
a 377 378 512
a 378 512 1
a 378 379 512
a 379 512 1
a 379 380 512
a 380 512 1
a 380 381 512
a 381 512 1
a 381 382 512
a 382 512 1
a 382 383 512
a 383 512 1
a 383 384 512
a 384 512 1
a 384 385 512
a 385 512 1
a 385 386 512
a 386 512 1
a 386 387 512
a 387 512 1
a 387 388 512
a 388 512 1
a 388 389 512
a 389 512 1
a 389 390 512
a 390 512 1
a 390 391 512
a 391 512 1
a 391 392 512
a 392 512 1
a 392 393 512
a 393 512 1
a 393 394 512
a 394 512 1
a 394 395 512
a 395 512 1
a 395 396 512
a 396 512 1
a 396 397 512
a 397 512 1
a 397 398 512
a 398 512 1
a 398 399 512
a 399 512 1
a 399 400 512
a 400 512 1
a 400 401 512
a 401 512 1
a 401 402 512
a 402 512 1
a 402 403 512
a 403 512 1
a 403 404 512
a 404 512 1
a 404 405 512
a 405 512 1
a 405 406 512
a 406 512 1
a 406 407 512
a 407 512 1
a 407 408 512
a 408 512 1
a 408 409 512
a 409 512 1
a 409 410 512
a 410 512 1
a 410 411 512
a 411 512 1
a 411 412 512
a 412 512 1
a 412 413 512
a 413 512 1
a 413 414 512
a 414 512 1
a 414 415 512
a 415 512 1
a 415 416 512
a 416 512 1
a 416 417 512
a 417 512 1
a 417 418 512
a 418 512 1
a 418 419 512
a 419 512 1
a 419 420 512
a 420 512 1
a 420 421 512
a 421 512 1
a 421 422 512
a 422 512 1
a 422 423 512
a 423 512 1
a 423 424 512
a 424 512 1
a 424 425 512
a 425 512 1
a 425 426 512
a 426 512 1
a 426 427 512
a 427 512 1
a 427 428 512
a 428 512 1
a 428 429 512
a 429 512 1
a 429 430 512
a 430 512 1
a 430 431 512
a 431 512 1
a 431 432 512
a 432 512 1
a 432 433 512
a 433 512 1
a 433 434 512
a 434 512 1
a 434 435 512
a 435 512 1
a 435 436 512
a 436 512 1
a 436 437 512
a 437 512 1
a 437 438 512
a 438 512 1
a 438 439 512
a 439 512 1
a 439 440 512
a 440 512 1
a 440 441 512
a 441 512 1
a 441 442 512
a 442 512 1
a 442 443 512
a 443 512 1
a 443 444 512
a 444 512 1
a 444 445 512
a 445 512 1
a 445 446 512
a 446 512 1
a 446 447 512
a 447 512 1
a 447 448 512
a 448 512 1
a 448 449 512
a 449 512 1
a 449 450 512
a 450 512 1
a 450 451 512
a 451 512 1
a 451 452 512
a 452 512 1
a 452 453 512
a 453 512 1
a 453 454 512
a 454 512 1
a 454 455 512
a 455 512 1
a 455 456 512
a 456 512 1
a 456 457 512
a 457 512 1
a 457 458 512
a 458 512 1
a 458 459 512
a 459 512 1
a 459 460 512
a 460 512 1
a 460 461 512
a 461 512 1
a 461 462 512
a 462 512 1
a 462 463 512
a 463 512 1
a 463 464 512
a 464 512 1
a 464 465 512
a 465 512 1
a 465 466 512
a 466 512 1
a 466 467 512
a 467 512 1
a 467 468 512
a 468 512 1
a 468 469 512
a 469 512 1
a 469 470 512
a 470 512 1
a 470 471 512
a 471 512 1
a 471 472 512
a 472 512 1
a 472 473 512
a 473 512 1
a 473 474 512
a 474 512 1
a 474 475 512
a 475 512 1
a 475 476 512
a 476 512 1
a 476 477 512
a 477 512 1
a 477 478 512
a 478 512 1
a 478 479 512
a 479 512 1
a 479 480 512
a 480 512 1
a 480 481 512
a 481 512 1
a 481 482 512
a 482 512 1
a 482 483 512
a 483 512 1
a 483 484 512
a 484 512 1
a 484 485 512
a 485 512 1
a 485 486 512
a 486 512 1
a 486 487 512
a 487 512 1
a 487 488 512
a 488 512 1
a 488 489 512
a 489 512 1
a 489 490 512
a 490 512 1
a 490 491 512
a 491 512 1
a 491 492 512
a 492 512 1
a 492 493 512
a 493 512 1
a 493 494 512
a 494 512 1
a 494 495 512
a 495 512 1
a 495 496 512
a 496 512 1
a 496 497 512
a 497 512 1
a 497 498 512
a 498 512 1
a 498 499 512
a 499 512 1
a 499 500 512
a 500 512 1
a 500 501 512
a 501 512 1
a 501 502 512
a 502 512 1
a 502 503 512
a 503 512 1
a 503 504 512
a 504 512 1
a 504 505 512
a 505 512 1
a 505 506 512
a 506 512 1
a 506 507 512
a 507 512 1
a 507 508 512
a 508 512 1
a 508 509 512
a 509 512 1
a 509 510 512
a 510 512 1
a 510 511 512
a 511 512 512
